projet_m2_wvcp/projet_m2_wvcp/original_wvcp_dzn/r04.clq.dzn
cliques=[{47,94,0,82,27,145,72,59,37,123},{29,146,1,85,62,116,18,11,50,135},{30,117,124,97,39,2,147,63,136,86,74,105},{41,107,13,87,65,119,3,126,98,52,20},{88,4,127,75,99,14,66,138,108},{130,89,5,55,77,34,69,111,16},{4,0,1,2,5,3,6},{102,7,80,92,70,57,45,121,113,132,143,25},{36,58,71,122,93,114,8,144,26,81,46},{95,38,17,28,48,103,60,83,133,9},{7,10,13,12,14,8,16,11,15,9},{7,10,13,12,14,8,16,11,15,9},{31,148,118,12,64,19,137,40,125,106,51},{41,107,13,87,65,119,3,126,98,52,20},{88,4,127,75,99,14,66,138,108},{128,76,139,53,100,42,32,67,21,149,15,109},{7,10,13,12,14,8,16,11,15,9},{95,38,17,28,48,103,60,83,133,9},{24,17,23,22,21,19,18,20},{31,148,118,12,64,19,137,40,125,106,51},{41,107,13,87,65,119,3,126,98,52,20},{128,76,139,53,100,42,32,67,21,149,15,109},{33,22,43,129,120,68,110,101,54,140},{24,17,23,22,21,19,18,20},{24,17,23,22,21,19,18,20},{102,7,80,92,70,57,45,121,113,132,143,25},{30,31,33,29,27,28,32,35,34,26,25},{30,31,33,29,27,28,32,35,34,26,25},{30,31,33,29,27,28,32,35,34,26,25},{30,31,33,29,27,28,32,35,34,26,25},{30,31,33,29,27,28,32,35,34,26,25},{30,31,33,29,27,28,32,35,34,26,25},{30,31,33,29,27,28,32,35,34,26,25},{30,31,33,29,27,28,32,35,34,26,25},{30,31,33,29,27,28,32,35,34,26,25},{30,31,33,29,27,28,32,35,34,26,25},{36,58,71,122,93,114,8,144,26,81,46},{47,94,0,82,27,145,72,59,37,123},{38,36,41,44,42,43,39,37,40},{30,117,124,97,39,2,147,63,136,86,74,105},{38,36,41,44,42,43,39,37,40},{41,107,13,87,65,119,3,126,98,52,20},{128,76,139,53,100,42,32,67,21,149,15,109},{38,36,41,44,42,43,39,37,40},{38,36,41,44,42,43,39,37,40},{102,7,80,92,70,57,45,121,113,132,143,25},{36,58,71,122,93,114,8,144,26,81,46},{47,94,0,82,27,145,72,59,37,123},{95,38,17,28,48,103,60,83,133,9},{47,53,48,45,55,52,56,46,50,51,49,54},{47,53,48,45,55,52,56,46,50,51,49,54},{31,148,118,12,64,19,137,40,125,106,51},{41,107,13,87,65,119,3,126,98,52,20},{128,76,139,53,100,42,32,67,21,149,15,109},{47,53,48,45,55,52,56,46,50,51,49,54},{47,53,48,45,55,52,56,46,50,51,49,54},{47,53,48,45,55,52,56,46,50,51,49,54},{102,7,80,92,70,57,45,121,113,132,143,25},{58,61,65,57,59,64,63,66,67,60,69,68,62},{58,61,65,57,59,64,63,66,67,60,69,68,62},{58,61,65,57,59,64,63,66,67,60,69,68,62},{58,61,65,57,59,64,63,66,67,60,69,68,62},{58,61,65,57,59,64,63,66,67,60,69,68,62},{58,61,65,57,59,64,63,66,67,60,69,68,62},{58,61,65,57,59,64,63,66,67,60,69,68,62},{58,61,65,57,59,64,63,66,67,60,69,68,62},{58,61,65,57,59,64,63,66,67,60,69,68,62},{58,61,65,57,59,64,63,66,67,60,69,68,62},{58,61,65,57,59,64,63,66,67,60,69,68,62},{58,61,65,57,59,64,63,66,67,60,69,68,62},{102,7,80,92,70,57,45,121,113,132,143,25},{36,58,71,122,93,114,8,144,26,81,46},{47,94,0,82,27,145,72,59,37,123},{76,71,70,75,72,73,77,79,78,74},{30,117,124,97,39,2,147,63,136,86,74,105},{76,71,70,75,72,73,77,79,78,74},{128,76,139,53,100,42,32,67,21,149,15,109},{76,71,70,75,72,73,77,79,78,74},{76,71,70,75,72,73,77,79,78,74},{76,71,70,75,72,73,77,79,78,74},{102,7,80,92,70,57,45,121,113,132,143,25},{88,80,84,82,87,89,85,90,86,83,81,91},{88,80,84,82,87,89,85,90,86,83,81,91},{88,80,84,82,87,89,85,90,86,83,81,91},{88,80,84,82,87,89,85,90,86,83,81,91},{88,80,84,82,87,89,85,90,86,83,81,91},{88,80,84,82,87,89,85,90,86,83,81,91},{88,80,84,82,87,89,85,90,86,83,81,91},{88,80,84,82,87,89,85,90,86,83,81,91},{88,80,84,82,87,89,85,90,86,83,81,91},{88,80,84,82,87,89,85,90,86,83,81,91},{88,80,84,82,87,89,85,90,86,83,81,91},{102,7,80,92,70,57,45,121,113,132,143,25},{95,96,92,94,100,97,93,99,98,101},{95,96,92,94,100,97,93,99,98,101},{95,96,92,94,100,97,93,99,98,101},{95,96,92,94,100,97,93,99,98,101},{30,117,124,97,39,2,147,63,136,86,74,105},{95,96,92,94,100,97,93,99,98,101},{95,96,92,94,100,97,93,99,98,101},{128,76,139,53,100,42,32,67,21,149,15,109},{95,96,92,94,100,97,93,99,98,101},{102,7,80,92,70,57,45,121,113,132,143,25},{95,38,17,28,48,103,60,83,133,9},{102,107,112,103,104,111,110,106,105,108,109},{30,117,124,97,39,2,147,63,136,86,74,105},{31,148,118,12,64,19,137,40,125,106,51},{41,107,13,87,65,119,3,126,98,52,20},{88,4,127,75,99,14,66,138,108},{128,76,139,53,100,42,32,67,21,149,15,109},{102,107,112,103,104,111,110,106,105,108,109},{102,107,112,103,104,111,110,106,105,108,109},{102,107,112,103,104,111,110,106,105,108,109},{102,7,80,92,70,57,45,121,113,132,143,25},{36,58,71,122,93,114,8,144,26,81,46},{96,84,61,10,73,104,115,134,49},{29,146,1,85,62,116,18,11,50,135},{30,117,124,97,39,2,147,63,136,86,74,105},{31,148,118,12,64,19,137,40,125,106,51},{41,107,13,87,65,119,3,126,98,52,20},{33,22,43,129,120,68,110,101,54,140},{102,7,80,92,70,57,45,121,113,132,143,25},{130,128,127,122,124,129,131,121,126,123,125},{130,128,127,122,124,129,131,121,126,123,125},{130,128,127,122,124,129,131,121,126,123,125},{130,128,127,122,124,129,131,121,126,123,125},{130,128,127,122,124,129,131,121,126,123,125},{130,128,127,122,124,129,131,121,126,123,125},{128,76,139,53,100,42,32,67,21,149,15,109},{130,128,127,122,124,129,131,121,126,123,125},{130,128,127,122,124,129,131,121,126,123,125},{130,128,127,122,124,129,131,121,126,123,125},{102,7,80,92,70,57,45,121,113,132,143,25},{95,38,17,28,48,103,60,83,133,9},{96,84,61,10,73,104,115,134,49},{29,146,1,85,62,116,18,11,50,135},{30,117,124,97,39,2,147,63,136,86,74,105},{31,148,118,12,64,19,137,40,125,106,51},{88,4,127,75,99,14,66,138,108},{128,76,139,53,100,42,32,67,21,149,15,109},{33,22,43,129,120,68,110,101,54,140},{139,136,137,141,138,134,132,133,142,135,140},{24,112,131,35,79,150,91,142},{102,7,80,92,70,57,45,121,113,132,143,25},{36,58,71,122,93,114,8,144,26,81,46},{47,94,0,82,27,145,72,59,37,123},{29,146,1,85,62,116,18,11,50,135},{30,117,124,97,39,2,147,63,136,86,74,105},{31,148,118,12,64,19,137,40,125,106,51},{128,76,139,53,100,42,32,67,21,149,15,109},{148,146,145,147,144,150,149,143}];
nr_cliques=151;
