projet_m2_wvcp/projet_m2_wvcp/original_wvcp_dzn/r04.dzn
name="r04";
nr_vertices=151;
nr_edges=1406;
neighborhoods=[{1,2,3,4,5,6,27,37,47,59,72,82,94,123,145},{0,2,3,4,5,6,11,18,29,50,62,85,116,135,146},{0,1,3,4,5,6,30,39,63,74,86,97,105,117,124,136,147},{0,1,2,4,5,6,13,20,41,52,65,87,98,107,119,126},{0,1,2,3,5,6,14,66,75,88,99,108,127,138},{0,1,2,3,4,6,16,34,55,69,77,89,111,130},{0,1,2,3,4,5,23,44,56,78,90,141},{8,9,10,11,12,13,14,15,16,25,45,57,70,80,92,102,113,121,132,143},{7,9,10,11,12,13,14,15,16,26,36,46,58,71,81,93,114,122,144},{7,8,10,11,12,13,14,15,16,17,28,38,48,60,83,95,103,133},{7,8,9,11,12,13,14,15,16,49,61,73,84,96,104,115,134},{1,7,8,9,10,12,13,14,15,16,18,29,50,62,85,116,135,146},{7,8,9,10,11,13,14,15,16,19,31,40,51,64,106,118,125,137,148},{3,7,8,9,10,11,12,14,15,16,20,41,52,65,87,98,107,119,126},{4,7,8,9,10,11,12,13,15,16,66,75,88,99,108,127,138},{7,8,9,10,11,12,13,14,16,21,32,42,53,67,76,100,109,128,139,149},{5,7,8,9,10,11,12,13,14,15,34,55,69,77,89,111,130},{9,18,19,20,21,22,23,24,28,38,48,60,83,95,103,133},{1,11,17,19,20,21,22,23,24,29,50,62,85,116,135,146},{12,17,18,20,21,22,23,24,31,40,51,64,106,118,125,137,148},{3,13,17,18,19,21,22,23,24,41,52,65,87,98,107,119,126},{15,17,18,19,20,22,23,24,32,42,53,67,76,100,109,128,139,149},{17,18,19,20,21,23,24,33,43,54,68,101,110,120,129,140},{6,17,18,19,20,21,22,24,44,56,78,90,141},{17,18,19,20,21,22,23,35,79,91,112,131,142,150},{7,26,27,28,29,30,31,32,33,34,35,45,57,70,80,92,102,113,121,132,143},{8,25,27,28,29,30,31,32,33,34,35,36,46,58,71,81,93,114,122,144},{0,25,26,28,29,30,31,32,33,34,35,37,47,59,72,82,94,123,145},{9,17,25,26,27,29,30,31,32,33,34,35,38,48,60,83,95,103,133},{1,11,18,25,26,27,28,30,31,32,33,34,35,50,62,85,116,135,146},{2,25,26,27,28,29,31,32,33,34,35,39,63,74,86,97,105,117,124,136,147},{12,19,25,26,27,28,29,30,32,33,34,35,40,51,64,106,118,125,137,148},{15,21,25,26,27,28,29,30,31,33,34,35,42,53,67,76,100,109,128,139,149},{22,25,26,27,28,29,30,31,32,34,35,43,54,68,101,110,120,129,140},{5,16,25,26,27,28,29,30,31,32,33,35,55,69,77,89,111,130},{24,25,26,27,28,29,30,31,32,33,34,79,91,112,131,142,150},{8,26,37,38,39,40,41,42,43,44,46,58,71,81,93,114,122,144},{0,27,36,38,39,40,41,42,43,44,47,59,72,82,94,123,145},{9,17,28,36,37,39,40,41,42,43,44,48,60,83,95,103,133},{2,30,36,37,38,40,41,42,43,44,63,74,86,97,105,117,124,136,147},{12,19,31,36,37,38,39,41,42,43,44,51,64,106,118,125,137,148},{3,13,20,36,37,38,39,40,42,43,44,52,65,87,98,107,119,126},{15,21,32,36,37,38,39,40,41,43,44,53,67,76,100,109,128,139,149},{22,33,36,37,38,39,40,41,42,44,54,68,101,110,120,129,140},{6,23,36,37,38,39,40,41,42,43,56,78,90,141},{7,25,46,47,48,49,50,51,52,53,54,55,56,57,70,80,92,102,113,121,132,143},{8,26,36,45,47,48,49,50,51,52,53,54,55,56,58,71,81,93,114,122,144},{0,27,37,45,46,48,49,50,51,52,53,54,55,56,59,72,82,94,123,145},{9,17,28,38,45,46,47,49,50,51,52,53,54,55,56,60,83,95,103,133},{10,45,46,47,48,50,51,52,53,54,55,56,61,73,84,96,104,115,134},{1,11,18,29,45,46,47,48,49,51,52,53,54,55,56,62,85,116,135,146},{12,19,31,40,45,46,47,48,49,50,52,53,54,55,56,64,106,118,125,137,148},{3,13,20,41,45,46,47,48,49,50,51,53,54,55,56,65,87,98,107,119,126},{15,21,32,42,45,46,47,48,49,50,51,52,54,55,56,67,76,100,109,128,139,149},{22,33,43,45,46,47,48,49,50,51,52,53,55,56,68,101,110,120,129,140},{5,16,34,45,46,47,48,49,50,51,52,53,54,56,69,77,89,111,130},{6,23,44,45,46,47,48,49,50,51,52,53,54,55,78,90,141},{7,25,45,58,59,60,61,62,63,64,65,66,67,68,69,70,80,92,102,113,121,132,143},{8,26,36,46,57,59,60,61,62,63,64,65,66,67,68,69,71,81,93,114,122,144},{0,27,37,47,57,58,60,61,62,63,64,65,66,67,68,69,72,82,94,123,145},{9,17,28,38,48,57,58,59,61,62,63,64,65,66,67,68,69,83,95,103,133},{10,49,57,58,59,60,62,63,64,65,66,67,68,69,73,84,96,104,115,134},{1,11,18,29,50,57,58,59,60,61,63,64,65,66,67,68,69,85,116,135,146},{2,30,39,57,58,59,60,61,62,64,65,66,67,68,69,74,86,97,105,117,124,136,147},{12,19,31,40,51,57,58,59,60,61,62,63,65,66,67,68,69,106,118,125,137,148},{3,13,20,41,52,57,58,59,60,61,62,63,64,66,67,68,69,87,98,107,119,126},{4,14,57,58,59,60,61,62,63,64,65,67,68,69,75,88,99,108,127,138},{15,21,32,42,53,57,58,59,60,61,62,63,64,65,66,68,69,76,100,109,128,139,149},{22,33,43,54,57,58,59,60,61,62,63,64,65,66,67,69,101,110,120,129,140},{5,16,34,55,57,58,59,60,61,62,63,64,65,66,67,68,77,89,111,130},{7,25,45,57,71,72,73,74,75,76,77,78,79,80,92,102,113,121,132,143},{8,26,36,46,58,70,72,73,74,75,76,77,78,79,81,93,114,122,144},{0,27,37,47,59,70,71,73,74,75,76,77,78,79,82,94,123,145},{10,49,61,70,71,72,74,75,76,77,78,79,84,96,104,115,134},{2,30,39,63,70,71,72,73,75,76,77,78,79,86,97,105,117,124,136,147},{4,14,66,70,71,72,73,74,76,77,78,79,88,99,108,127,138},{15,21,32,42,53,67,70,71,72,73,74,75,77,78,79,100,109,128,139,149},{5,16,34,55,69,70,71,72,73,74,75,76,78,79,89,111,130},{6,23,44,56,70,71,72,73,74,75,76,77,79,90,141},{24,35,70,71,72,73,74,75,76,77,78,91,112,131,142,150},{7,25,45,57,70,81,82,83,84,85,86,87,88,89,90,91,92,102,113,121,132,143},{8,26,36,46,58,71,80,82,83,84,85,86,87,88,89,90,91,93,114,122,144},{0,27,37,47,59,72,80,81,83,84,85,86,87,88,89,90,91,94,123,145},{9,17,28,38,48,60,80,81,82,84,85,86,87,88,89,90,91,95,103,133},{10,49,61,73,80,81,82,83,85,86,87,88,89,90,91,96,104,115,134},{1,11,18,29,50,62,80,81,82,83,84,86,87,88,89,90,91,116,135,146},{2,30,39,63,74,80,81,82,83,84,85,87,88,89,90,91,97,105,117,124,136,147},{3,13,20,41,52,65,80,81,82,83,84,85,86,88,89,90,91,98,107,119,126},{4,14,66,75,80,81,82,83,84,85,86,87,89,90,91,99,108,127,138},{5,16,34,55,69,77,80,81,82,83,84,85,86,87,88,90,91,111,130},{6,23,44,56,78,80,81,82,83,84,85,86,87,88,89,91,141},{24,35,79,80,81,82,83,84,85,86,87,88,89,90,112,131,142,150},{7,25,45,57,70,80,93,94,95,96,97,98,99,100,101,102,113,121,132,143},{8,26,36,46,58,71,81,92,94,95,96,97,98,99,100,101,114,122,144},{0,27,37,47,59,72,82,92,93,95,96,97,98,99,100,101,123,145},{9,17,28,38,48,60,83,92,93,94,96,97,98,99,100,101,103,133},{10,49,61,73,84,92,93,94,95,97,98,99,100,101,104,115,134},{2,30,39,63,74,86,92,93,94,95,96,98,99,100,101,105,117,124,136,147},{3,13,20,41,52,65,87,92,93,94,95,96,97,99,100,101,107,119,126},{4,14,66,75,88,92,93,94,95,96,97,98,100,101,108,127,138},{15,21,32,42,53,67,76,92,93,94,95,96,97,98,99,101,109,128,139,149},{22,33,43,54,68,92,93,94,95,96,97,98,99,100,110,120,129,140},{7,25,45,57,70,80,92,103,104,105,106,107,108,109,110,111,112,113,121,132,143},{9,17,28,38,48,60,83,95,102,104,105,106,107,108,109,110,111,112,133},{10,49,61,73,84,96,102,103,105,106,107,108,109,110,111,112,115,134},{2,30,39,63,74,86,97,102,103,104,106,107,108,109,110,111,112,117,124,136,147},{12,19,31,40,51,64,102,103,104,105,107,108,109,110,111,112,118,125,137,148},{3,13,20,41,52,65,87,98,102,103,104,105,106,108,109,110,111,112,119,126},{4,14,66,75,88,99,102,103,104,105,106,107,109,110,111,112,127,138},{15,21,32,42,53,67,76,100,102,103,104,105,106,107,108,110,111,112,128,139,149},{22,33,43,54,68,101,102,103,104,105,106,107,108,109,111,112,120,129,140},{5,16,34,55,69,77,89,102,103,104,105,106,107,108,109,110,112,130},{24,35,79,91,102,103,104,105,106,107,108,109,110,111,131,142,150},{7,25,45,57,70,80,92,102,114,115,116,117,118,119,120,121,132,143},{8,26,36,46,58,71,81,93,113,115,116,117,118,119,120,122,144},{10,49,61,73,84,96,104,113,114,116,117,118,119,120,134},{1,11,18,29,50,62,85,113,114,115,117,118,119,120,135,146},{2,30,39,63,74,86,97,105,113,114,115,116,118,119,120,124,136,147},{12,19,31,40,51,64,106,113,114,115,116,117,119,120,125,137,148},{3,13,20,41,52,65,87,98,107,113,114,115,116,117,118,120,126},{22,33,43,54,68,101,110,113,114,115,116,117,118,119,129,140},{7,25,45,57,70,80,92,102,113,122,123,124,125,126,127,128,129,130,131,132,143},{8,26,36,46,58,71,81,93,114,121,123,124,125,126,127,128,129,130,131,144},{0,27,37,47,59,72,82,94,121,122,124,125,126,127,128,129,130,131,145},{2,30,39,63,74,86,97,105,117,121,122,123,125,126,127,128,129,130,131,136,147},{12,19,31,40,51,64,106,118,121,122,123,124,126,127,128,129,130,131,137,148},{3,13,20,41,52,65,87,98,107,119,121,122,123,124,125,127,128,129,130,131},{4,14,66,75,88,99,108,121,122,123,124,125,126,128,129,130,131,138},{15,21,32,42,53,67,76,100,109,121,122,123,124,125,126,127,129,130,131,139,149},{22,33,43,54,68,101,110,120,121,122,123,124,125,126,127,128,130,131,140},{5,16,34,55,69,77,89,111,121,122,123,124,125,126,127,128,129,131},{24,35,79,91,112,121,122,123,124,125,126,127,128,129,130,142,150},{7,25,45,57,70,80,92,102,113,121,133,134,135,136,137,138,139,140,141,142,143},{9,17,28,38,48,60,83,95,103,132,134,135,136,137,138,139,140,141,142},{10,49,61,73,84,96,104,115,132,133,135,136,137,138,139,140,141,142},{1,11,18,29,50,62,85,116,132,133,134,136,137,138,139,140,141,142,146},{2,30,39,63,74,86,97,105,117,124,132,133,134,135,137,138,139,140,141,142,147},{12,19,31,40,51,64,106,118,125,132,133,134,135,136,138,139,140,141,142,148},{4,14,66,75,88,99,108,127,132,133,134,135,136,137,139,140,141,142},{15,21,32,42,53,67,76,100,109,128,132,133,134,135,136,137,138,140,141,142,149},{22,33,43,54,68,101,110,120,129,132,133,134,135,136,137,138,139,141,142},{6,23,44,56,78,90,132,133,134,135,136,137,138,139,140,142},{24,35,79,91,112,131,132,133,134,135,136,137,138,139,140,141,150},{7,25,45,57,70,80,92,102,113,121,132,144,145,146,147,148,149,150},{8,26,36,46,58,71,81,93,114,122,143,145,146,147,148,149,150},{0,27,37,47,59,72,82,94,123,143,144,146,147,148,149,150},{1,11,18,29,50,62,85,116,135,143,144,145,147,148,149,150},{2,30,39,63,74,86,97,105,117,124,136,143,144,145,146,148,149,150},{12,19,31,40,51,64,106,118,125,137,143,144,145,146,147,149,150},{15,21,32,42,53,67,76,100,109,128,139,143,144,145,146,147,148,150},{24,35,79,91,112,131,142,143,144,145,146,147,148,149}];
weights=[542,506,429,412,626,423,332,685,383,206,544,240,397,533,391,237,300,643,277,306,237,332,546,613,689,229,266,515,479,644,684,683,395,654,344,359,663,332,694,474,277,554,519,516,522,429,257,688,451,216,223,219,302,529,208,378,278,476,567,425,333,550,306,381,391,485,361,351,324,325,532,556,468,390,237,527,600,370,324,354,635,265,532,284,612,476,289,521,636,519,472,221,615,466,566,702,618,480,338,401,522,215,691,386,312,234,253,553,232,225,261,308,445,354,386,275,299,626,607,460,450,378,543,280,514,268,356,567,622,486,658,410,237,211,270,203,301,301,273,557,201,293,207,233,340,477,510,392,630,318,326];
